p cnf 502 1547
-16 1 0
-16 6 0
16 -1 -6 0
-17 1 0
-17 7 0
17 -1 -7 0
-18 1 0
-18 8 0
18 -1 -8 0
-19 1 0
-19 9 0
19 -1 -9 0
-20 1 0
-20 10 0
20 -1 -10 0
-21 2 0
-21 6 0
21 -2 -6 0
-22 2 0
-22 7 0
22 -2 -7 0
-23 2 0
-23 8 0
23 -2 -8 0
-24 2 0
-24 9 0
24 -2 -9 0
-25 2 0
-25 10 0
25 -2 -10 0
-26 3 0
-26 6 0
26 -3 -6 0
-27 3 0
-27 7 0
27 -3 -7 0
-28 3 0
-28 8 0
28 -3 -8 0
-29 3 0
-29 9 0
29 -3 -9 0
-30 3 0
-30 10 0
30 -3 -10 0
-31 4 0
-31 6 0
31 -4 -6 0
-32 4 0
-32 7 0
32 -4 -7 0
-33 4 0
-33 8 0
33 -4 -8 0
-34 4 0
-34 9 0
34 -4 -9 0
-35 4 0
-35 10 0
35 -4 -10 0
-36 5 0
-36 6 0
36 -5 -6 0
-37 5 0
-37 7 0
37 -5 -7 0
-38 5 0
-38 8 0
38 -5 -8 0
-39 5 0
-39 9 0
39 -5 -9 0
-40 5 0
-40 10 0
40 -5 -10 0
-41 1 0
-41 11 0
41 -1 -11 0
-42 1 0
-42 12 0
42 -1 -12 0
-43 1 0
-43 13 0
43 -1 -13 0
-44 1 0
-44 14 0
44 -1 -14 0
-45 1 0
-45 15 0
45 -1 -15 0
-46 2 0
-46 11 0
46 -2 -11 0
-47 2 0
-47 12 0
47 -2 -12 0
-48 2 0
-48 13 0
48 -2 -13 0
-49 2 0
-49 14 0
49 -2 -14 0
-50 2 0
-50 15 0
50 -2 -15 0
-51 3 0
-51 11 0
51 -3 -11 0
-52 3 0
-52 12 0
52 -3 -12 0
-53 3 0
-53 13 0
53 -3 -13 0
-54 3 0
-54 14 0
54 -3 -14 0
-55 3 0
-55 15 0
55 -3 -15 0
-56 4 0
-56 11 0
56 -4 -11 0
-57 4 0
-57 12 0
57 -4 -12 0
-58 4 0
-58 13 0
58 -4 -13 0
-59 4 0
-59 14 0
59 -4 -14 0
-60 4 0
-60 15 0
60 -4 -15 0
-61 5 0
-61 11 0
61 -5 -11 0
-62 5 0
-62 12 0
62 -5 -12 0
-63 5 0
-63 13 0
63 -5 -13 0
-64 5 0
-64 14 0
64 -5 -14 0
-65 5 0
-65 15 0
65 -5 -15 0
-66 6 0
-66 11 0
66 -6 -11 0
-67 6 0
-67 12 0
67 -6 -12 0
-68 6 0
-68 13 0
68 -6 -13 0
-69 6 0
-69 14 0
69 -6 -14 0
-70 6 0
-70 15 0
70 -6 -15 0
-71 7 0
-71 11 0
71 -7 -11 0
-72 7 0
-72 12 0
72 -7 -12 0
-73 7 0
-73 13 0
73 -7 -13 0
-74 7 0
-74 14 0
74 -7 -14 0
-75 7 0
-75 15 0
75 -7 -15 0
-76 8 0
-76 11 0
76 -8 -11 0
-77 8 0
-77 12 0
77 -8 -12 0
-78 8 0
-78 13 0
78 -8 -13 0
-79 8 0
-79 14 0
79 -8 -14 0
-80 8 0
-80 15 0
80 -8 -15 0
-81 9 0
-81 11 0
81 -9 -11 0
-82 9 0
-82 12 0
82 -9 -12 0
-83 9 0
-83 13 0
83 -9 -13 0
-84 9 0
-84 14 0
84 -9 -14 0
-85 9 0
-85 15 0
85 -9 -15 0
-86 10 0
-86 11 0
86 -10 -11 0
-87 10 0
-87 12 0
87 -10 -12 0
-88 10 0
-88 13 0
88 -10 -13 0
-89 10 0
-89 14 0
89 -10 -14 0
-90 10 0
-90 15 0
90 -10 -15 0
-91 1 0
-91 6 0
-91 11 0
91 -1 -6 -11 0
-92 1 0
-92 6 0
-92 12 0
92 -1 -6 -12 0
-93 1 0
-93 6 0
-93 13 0
93 -1 -6 -13 0
-94 1 0
-94 6 0
-94 14 0
94 -1 -6 -14 0
-95 1 0
-95 6 0
-95 15 0
95 -1 -6 -15 0
-96 1 0
-96 7 0
-96 11 0
96 -1 -7 -11 0
-97 1 0
-97 7 0
-97 12 0
97 -1 -7 -12 0
-98 1 0
-98 7 0
-98 13 0
98 -1 -7 -13 0
-99 1 0
-99 7 0
-99 14 0
99 -1 -7 -14 0
-100 1 0
-100 7 0
-100 15 0
100 -1 -7 -15 0
-101 1 0
-101 8 0
-101 11 0
101 -1 -8 -11 0
-102 1 0
-102 8 0
-102 12 0
102 -1 -8 -12 0
-103 1 0
-103 8 0
-103 13 0
103 -1 -8 -13 0
-104 1 0
-104 8 0
-104 14 0
104 -1 -8 -14 0
-105 1 0
-105 8 0
-105 15 0
105 -1 -8 -15 0
-106 1 0
-106 9 0
-106 11 0
106 -1 -9 -11 0
-107 1 0
-107 9 0
-107 12 0
107 -1 -9 -12 0
-108 1 0
-108 9 0
-108 13 0
108 -1 -9 -13 0
-109 1 0
-109 9 0
-109 14 0
109 -1 -9 -14 0
-110 1 0
-110 9 0
-110 15 0
110 -1 -9 -15 0
-111 1 0
-111 10 0
-111 11 0
111 -1 -10 -11 0
-112 1 0
-112 10 0
-112 12 0
112 -1 -10 -12 0
-113 1 0
-113 10 0
-113 13 0
113 -1 -10 -13 0
-114 1 0
-114 10 0
-114 14 0
114 -1 -10 -14 0
-115 1 0
-115 10 0
-115 15 0
115 -1 -10 -15 0
-116 2 0
-116 6 0
-116 11 0
116 -2 -6 -11 0
-117 2 0
-117 6 0
-117 12 0
117 -2 -6 -12 0
-118 2 0
-118 6 0
-118 13 0
118 -2 -6 -13 0
-119 2 0
-119 6 0
-119 14 0
119 -2 -6 -14 0
-120 2 0
-120 6 0
-120 15 0
120 -2 -6 -15 0
-121 2 0
-121 7 0
-121 11 0
121 -2 -7 -11 0
-122 2 0
-122 7 0
-122 12 0
122 -2 -7 -12 0
-123 2 0
-123 7 0
-123 13 0
123 -2 -7 -13 0
-124 2 0
-124 7 0
-124 14 0
124 -2 -7 -14 0
-125 2 0
-125 7 0
-125 15 0
125 -2 -7 -15 0
-126 2 0
-126 8 0
-126 11 0
126 -2 -8 -11 0
-127 2 0
-127 8 0
-127 12 0
127 -2 -8 -12 0
-128 2 0
-128 8 0
-128 13 0
128 -2 -8 -13 0
-129 2 0
-129 8 0
-129 14 0
129 -2 -8 -14 0
-130 2 0
-130 8 0
-130 15 0
130 -2 -8 -15 0
-131 2 0
-131 9 0
-131 11 0
131 -2 -9 -11 0
-132 2 0
-132 9 0
-132 12 0
132 -2 -9 -12 0
-133 2 0
-133 9 0
-133 13 0
133 -2 -9 -13 0
-134 2 0
-134 9 0
-134 14 0
134 -2 -9 -14 0
-135 2 0
-135 9 0
-135 15 0
135 -2 -9 -15 0
-136 2 0
-136 10 0
-136 11 0
136 -2 -10 -11 0
-137 2 0
-137 10 0
-137 12 0
137 -2 -10 -12 0
-138 2 0
-138 10 0
-138 13 0
138 -2 -10 -13 0
-139 2 0
-139 10 0
-139 14 0
139 -2 -10 -14 0
-140 2 0
-140 10 0
-140 15 0
140 -2 -10 -15 0
-141 3 0
-141 6 0
-141 11 0
141 -3 -6 -11 0
-142 3 0
-142 6 0
-142 12 0
142 -3 -6 -12 0
-143 3 0
-143 6 0
-143 13 0
143 -3 -6 -13 0
-144 3 0
-144 6 0
-144 14 0
144 -3 -6 -14 0
-145 3 0
-145 6 0
-145 15 0
145 -3 -6 -15 0
-146 3 0
-146 7 0
-146 11 0
146 -3 -7 -11 0
-147 3 0
-147 7 0
-147 12 0
147 -3 -7 -12 0
-148 3 0
-148 7 0
-148 13 0
148 -3 -7 -13 0
-149 3 0
-149 7 0
-149 14 0
149 -3 -7 -14 0
-150 3 0
-150 7 0
-150 15 0
150 -3 -7 -15 0
-151 3 0
-151 8 0
-151 11 0
151 -3 -8 -11 0
-152 3 0
-152 8 0
-152 12 0
152 -3 -8 -12 0
-153 3 0
-153 8 0
-153 13 0
153 -3 -8 -13 0
-154 3 0
-154 8 0
-154 14 0
154 -3 -8 -14 0
-155 3 0
-155 8 0
-155 15 0
155 -3 -8 -15 0
-156 3 0
-156 9 0
-156 11 0
156 -3 -9 -11 0
-157 3 0
-157 9 0
-157 12 0
157 -3 -9 -12 0
-158 3 0
-158 9 0
-158 13 0
158 -3 -9 -13 0
-159 3 0
-159 9 0
-159 14 0
159 -3 -9 -14 0
-160 3 0
-160 9 0
-160 15 0
160 -3 -9 -15 0
-161 3 0
-161 10 0
-161 11 0
161 -3 -10 -11 0
-162 3 0
-162 10 0
-162 12 0
162 -3 -10 -12 0
-163 3 0
-163 10 0
-163 13 0
163 -3 -10 -13 0
-164 3 0
-164 10 0
-164 14 0
164 -3 -10 -14 0
-165 3 0
-165 10 0
-165 15 0
165 -3 -10 -15 0
-166 4 0
-166 6 0
-166 11 0
166 -4 -6 -11 0
-167 4 0
-167 6 0
-167 12 0
167 -4 -6 -12 0
-168 4 0
-168 6 0
-168 13 0
168 -4 -6 -13 0
-169 4 0
-169 6 0
-169 14 0
169 -4 -6 -14 0
-170 4 0
-170 6 0
-170 15 0
170 -4 -6 -15 0
-171 4 0
-171 7 0
-171 11 0
171 -4 -7 -11 0
-172 4 0
-172 7 0
-172 12 0
172 -4 -7 -12 0
-173 4 0
-173 7 0
-173 13 0
173 -4 -7 -13 0
-174 4 0
-174 7 0
-174 14 0
174 -4 -7 -14 0
-175 4 0
-175 7 0
-175 15 0
175 -4 -7 -15 0
-176 4 0
-176 8 0
-176 11 0
176 -4 -8 -11 0
-177 4 0
-177 8 0
-177 12 0
177 -4 -8 -12 0
-178 4 0
-178 8 0
-178 13 0
178 -4 -8 -13 0
-179 4 0
-179 8 0
-179 14 0
179 -4 -8 -14 0
-180 4 0
-180 8 0
-180 15 0
180 -4 -8 -15 0
-181 4 0
-181 9 0
-181 11 0
181 -4 -9 -11 0
-182 4 0
-182 9 0
-182 12 0
182 -4 -9 -12 0
-183 4 0
-183 9 0
-183 13 0
183 -4 -9 -13 0
-184 4 0
-184 9 0
-184 14 0
184 -4 -9 -14 0
-185 4 0
-185 9 0
-185 15 0
185 -4 -9 -15 0
-186 4 0
-186 10 0
-186 11 0
186 -4 -10 -11 0
-187 4 0
-187 10 0
-187 12 0
187 -4 -10 -12 0
-188 4 0
-188 10 0
-188 13 0
188 -4 -10 -13 0
-189 4 0
-189 10 0
-189 14 0
189 -4 -10 -14 0
-190 4 0
-190 10 0
-190 15 0
190 -4 -10 -15 0
-191 5 0
-191 6 0
-191 11 0
191 -5 -6 -11 0
-192 5 0
-192 6 0
-192 12 0
192 -5 -6 -12 0
-193 5 0
-193 6 0
-193 13 0
193 -5 -6 -13 0
-194 5 0
-194 6 0
-194 14 0
194 -5 -6 -14 0
-195 5 0
-195 6 0
-195 15 0
195 -5 -6 -15 0
-196 5 0
-196 7 0
-196 11 0
196 -5 -7 -11 0
-197 5 0
-197 7 0
-197 12 0
197 -5 -7 -12 0
-198 5 0
-198 7 0
-198 13 0
198 -5 -7 -13 0
-199 5 0
-199 7 0
-199 14 0
199 -5 -7 -14 0
-200 5 0
-200 7 0
-200 15 0
200 -5 -7 -15 0
-201 5 0
-201 8 0
-201 11 0
201 -5 -8 -11 0
-202 5 0
-202 8 0
-202 12 0
202 -5 -8 -12 0
-203 5 0
-203 8 0
-203 13 0
203 -5 -8 -13 0
-204 5 0
-204 8 0
-204 14 0
204 -5 -8 -14 0
-205 5 0
-205 8 0
-205 15 0
205 -5 -8 -15 0
-206 5 0
-206 9 0
-206 11 0
206 -5 -9 -11 0
-207 5 0
-207 9 0
-207 12 0
207 -5 -9 -12 0
-208 5 0
-208 9 0
-208 13 0
208 -5 -9 -13 0
-209 5 0
-209 9 0
-209 14 0
209 -5 -9 -14 0
-210 5 0
-210 9 0
-210 15 0
210 -5 -9 -15 0
-211 5 0
-211 10 0
-211 11 0
211 -5 -10 -11 0
-212 5 0
-212 10 0
-212 12 0
212 -5 -10 -12 0
-213 5 0
-213 10 0
-213 13 0
213 -5 -10 -13 0
-214 5 0
-214 10 0
-214 14 0
214 -5 -10 -14 0
-215 5 0
-215 10 0
-215 15 0
215 -5 -10 -15 0
x -216 1 6 11 0
x -217 2 7 12 0
x -218 3 8 13 0
x -219 4 9 14 0
x -220 5 10 15 0
x -221 16 41 66 0
x -222 17 21 42 46 67 71 0
x -223 18 22 26 43 47 51 68 72 76 0
x -224 19 23 27 31 44 48 52 56 69 73 77 81 0
x -225 20 24 28 32 36 45 49 53 57 61 70 74 78 82 86 0
x -226 25 29 33 37 50 54 58 62 75 79 83 87 0
x -227 30 34 38 55 59 63 80 84 88 0
x -228 35 39 60 64 85 89 0
x -229 40 65 90 0
x -230 91 0
x -231 92 96 116 0
x -232 93 97 101 117 121 141 0
x -233 94 98 102 106 118 122 126 142 146 166 0
x -234 95 99 103 107 111 119 123 127 131 143 147 151 167 171 191 0
x -235 100 104 108 112 120 124 128 132 136 144 148 152 156 168 172 176 192 196 0
x -236 105 109 113 125 129 133 137 145 149 153 157 161 169 173 177 181 193 197 201 0
x -237 110 114 130 134 138 150 154 158 162 170 174 178 182 186 194 198 202 206 0
x -238 115 135 139 155 159 163 175 179 183 187 195 199 203 207 211 0
x -239 140 160 164 180 184 188 200 204 208 212 0
x -240 165 185 189 205 209 213 0
x -241 190 210 214 0
x -242 215 0
-243 216 0
-243 230 0
243 -216 -230 0
-244 216 0
-244 231 0
244 -216 -231 0
-245 216 0
-245 232 0
245 -216 -232 0
-246 216 0
-246 233 0
246 -216 -233 0
-247 216 0
-247 234 0
247 -216 -234 0
-248 216 0
-248 235 0
248 -216 -235 0
-249 216 0
-249 236 0
249 -216 -236 0
-250 216 0
-250 237 0
250 -216 -237 0
-251 216 0
-251 238 0
251 -216 -238 0
-252 216 0
-252 239 0
252 -216 -239 0
-253 216 0
-253 240 0
253 -216 -240 0
-254 216 0
-254 241 0
254 -216 -241 0
-255 216 0
-255 242 0
255 -216 -242 0
-256 217 0
-256 230 0
256 -217 -230 0
-257 217 0
-257 231 0
257 -217 -231 0
-258 217 0
-258 232 0
258 -217 -232 0
-259 217 0
-259 233 0
259 -217 -233 0
-260 217 0
-260 234 0
260 -217 -234 0
-261 217 0
-261 235 0
261 -217 -235 0
-262 217 0
-262 236 0
262 -217 -236 0
-263 217 0
-263 237 0
263 -217 -237 0
-264 217 0
-264 238 0
264 -217 -238 0
-265 217 0
-265 239 0
265 -217 -239 0
-266 217 0
-266 240 0
266 -217 -240 0
-267 217 0
-267 241 0
267 -217 -241 0
-268 217 0
-268 242 0
268 -217 -242 0
-269 218 0
-269 230 0
269 -218 -230 0
-270 218 0
-270 231 0
270 -218 -231 0
-271 218 0
-271 232 0
271 -218 -232 0
-272 218 0
-272 233 0
272 -218 -233 0
-273 218 0
-273 234 0
273 -218 -234 0
-274 218 0
-274 235 0
274 -218 -235 0
-275 218 0
-275 236 0
275 -218 -236 0
-276 218 0
-276 237 0
276 -218 -237 0
-277 218 0
-277 238 0
277 -218 -238 0
-278 218 0
-278 239 0
278 -218 -239 0
-279 218 0
-279 240 0
279 -218 -240 0
-280 218 0
-280 241 0
280 -218 -241 0
-281 218 0
-281 242 0
281 -218 -242 0
-282 219 0
-282 230 0
282 -219 -230 0
-283 219 0
-283 231 0
283 -219 -231 0
-284 219 0
-284 232 0
284 -219 -232 0
-285 219 0
-285 233 0
285 -219 -233 0
-286 219 0
-286 234 0
286 -219 -234 0
-287 219 0
-287 235 0
287 -219 -235 0
-288 219 0
-288 236 0
288 -219 -236 0
-289 219 0
-289 237 0
289 -219 -237 0
-290 219 0
-290 238 0
290 -219 -238 0
-291 219 0
-291 239 0
291 -219 -239 0
-292 219 0
-292 240 0
292 -219 -240 0
-293 219 0
-293 241 0
293 -219 -241 0
-294 219 0
-294 242 0
294 -219 -242 0
-295 220 0
-295 230 0
295 -220 -230 0
-296 220 0
-296 231 0
296 -220 -231 0
-297 220 0
-297 232 0
297 -220 -232 0
-298 220 0
-298 233 0
298 -220 -233 0
-299 220 0
-299 234 0
299 -220 -234 0
-300 220 0
-300 235 0
300 -220 -235 0
-301 220 0
-301 236 0
301 -220 -236 0
-302 220 0
-302 237 0
302 -220 -237 0
-303 220 0
-303 238 0
303 -220 -238 0
-304 220 0
-304 239 0
304 -220 -239 0
-305 220 0
-305 240 0
305 -220 -240 0
-306 220 0
-306 241 0
306 -220 -241 0
-307 220 0
-307 242 0
307 -220 -242 0
-308 221 0
-308 230 0
308 -221 -230 0
-309 221 0
-309 231 0
309 -221 -231 0
-310 221 0
-310 232 0
310 -221 -232 0
-311 221 0
-311 233 0
311 -221 -233 0
-312 221 0
-312 234 0
312 -221 -234 0
-313 221 0
-313 235 0
313 -221 -235 0
-314 221 0
-314 236 0
314 -221 -236 0
-315 221 0
-315 237 0
315 -221 -237 0
-316 221 0
-316 238 0
316 -221 -238 0
-317 221 0
-317 239 0
317 -221 -239 0
-318 221 0
-318 240 0
318 -221 -240 0
-319 221 0
-319 241 0
319 -221 -241 0
-320 221 0
-320 242 0
320 -221 -242 0
-321 222 0
-321 230 0
321 -222 -230 0
-322 222 0
-322 231 0
322 -222 -231 0
-323 222 0
-323 232 0
323 -222 -232 0
-324 222 0
-324 233 0
324 -222 -233 0
-325 222 0
-325 234 0
325 -222 -234 0
-326 222 0
-326 235 0
326 -222 -235 0
-327 222 0
-327 236 0
327 -222 -236 0
-328 222 0
-328 237 0
328 -222 -237 0
-329 222 0
-329 238 0
329 -222 -238 0
-330 222 0
-330 239 0
330 -222 -239 0
-331 222 0
-331 240 0
331 -222 -240 0
-332 222 0
-332 241 0
332 -222 -241 0
-333 222 0
-333 242 0
333 -222 -242 0
-334 223 0
-334 230 0
334 -223 -230 0
-335 223 0
-335 231 0
335 -223 -231 0
-336 223 0
-336 232 0
336 -223 -232 0
-337 223 0
-337 233 0
337 -223 -233 0
-338 223 0
-338 234 0
338 -223 -234 0
-339 223 0
-339 235 0
339 -223 -235 0
-340 223 0
-340 236 0
340 -223 -236 0
-341 223 0
-341 237 0
341 -223 -237 0
-342 223 0
-342 238 0
342 -223 -238 0
-343 223 0
-343 239 0
343 -223 -239 0
-344 223 0
-344 240 0
344 -223 -240 0
-345 223 0
-345 241 0
345 -223 -241 0
-346 223 0
-346 242 0
346 -223 -242 0
-347 224 0
-347 230 0
347 -224 -230 0
-348 224 0
-348 231 0
348 -224 -231 0
-349 224 0
-349 232 0
349 -224 -232 0
-350 224 0
-350 233 0
350 -224 -233 0
-351 224 0
-351 234 0
351 -224 -234 0
-352 224 0
-352 235 0
352 -224 -235 0
-353 224 0
-353 236 0
353 -224 -236 0
-354 224 0
-354 237 0
354 -224 -237 0
-355 224 0
-355 238 0
355 -224 -238 0
-356 224 0
-356 239 0
356 -224 -239 0
-357 224 0
-357 240 0
357 -224 -240 0
-358 224 0
-358 241 0
358 -224 -241 0
-359 224 0
-359 242 0
359 -224 -242 0
-360 225 0
-360 230 0
360 -225 -230 0
-361 225 0
-361 231 0
361 -225 -231 0
-362 225 0
-362 232 0
362 -225 -232 0
-363 225 0
-363 233 0
363 -225 -233 0
-364 225 0
-364 234 0
364 -225 -234 0
-365 225 0
-365 235 0
365 -225 -235 0
-366 225 0
-366 236 0
366 -225 -236 0
-367 225 0
-367 237 0
367 -225 -237 0
-368 225 0
-368 238 0
368 -225 -238 0
-369 225 0
-369 239 0
369 -225 -239 0
-370 225 0
-370 240 0
370 -225 -240 0
-371 225 0
-371 241 0
371 -225 -241 0
-372 225 0
-372 242 0
372 -225 -242 0
-373 226 0
-373 230 0
373 -226 -230 0
-374 226 0
-374 231 0
374 -226 -231 0
-375 226 0
-375 232 0
375 -226 -232 0
-376 226 0
-376 233 0
376 -226 -233 0
-377 226 0
-377 234 0
377 -226 -234 0
-378 226 0
-378 235 0
378 -226 -235 0
-379 226 0
-379 236 0
379 -226 -236 0
-380 226 0
-380 237 0
380 -226 -237 0
-381 226 0
-381 238 0
381 -226 -238 0
-382 226 0
-382 239 0
382 -226 -239 0
-383 226 0
-383 240 0
383 -226 -240 0
-384 226 0
-384 241 0
384 -226 -241 0
-385 226 0
-385 242 0
385 -226 -242 0
-386 227 0
-386 230 0
386 -227 -230 0
-387 227 0
-387 231 0
387 -227 -231 0
-388 227 0
-388 232 0
388 -227 -232 0
-389 227 0
-389 233 0
389 -227 -233 0
-390 227 0
-390 234 0
390 -227 -234 0
-391 227 0
-391 235 0
391 -227 -235 0
-392 227 0
-392 236 0
392 -227 -236 0
-393 227 0
-393 237 0
393 -227 -237 0
-394 227 0
-394 238 0
394 -227 -238 0
-395 227 0
-395 239 0
395 -227 -239 0
-396 227 0
-396 240 0
396 -227 -240 0
-397 227 0
-397 241 0
397 -227 -241 0
-398 227 0
-398 242 0
398 -227 -242 0
-399 228 0
-399 230 0
399 -228 -230 0
-400 228 0
-400 231 0
400 -228 -231 0
-401 228 0
-401 232 0
401 -228 -232 0
-402 228 0
-402 233 0
402 -228 -233 0
-403 228 0
-403 234 0
403 -228 -234 0
-404 228 0
-404 235 0
404 -228 -235 0
-405 228 0
-405 236 0
405 -228 -236 0
-406 228 0
-406 237 0
406 -228 -237 0
-407 228 0
-407 238 0
407 -228 -238 0
-408 228 0
-408 239 0
408 -228 -239 0
-409 228 0
-409 240 0
409 -228 -240 0
-410 228 0
-410 241 0
410 -228 -241 0
-411 228 0
-411 242 0
411 -228 -242 0
-412 229 0
-412 230 0
412 -229 -230 0
-413 229 0
-413 231 0
413 -229 -231 0
-414 229 0
-414 232 0
414 -229 -232 0
-415 229 0
-415 233 0
415 -229 -233 0
-416 229 0
-416 234 0
416 -229 -234 0
-417 229 0
-417 235 0
417 -229 -235 0
-418 229 0
-418 236 0
418 -229 -236 0
-419 229 0
-419 237 0
419 -229 -237 0
-420 229 0
-420 238 0
420 -229 -238 0
-421 229 0
-421 239 0
421 -229 -239 0
-422 229 0
-422 240 0
422 -229 -240 0
-423 229 0
-423 241 0
423 -229 -241 0
-424 229 0
-424 242 0
424 -229 -242 0
-425 230 0
-425 231 0
425 -230 -231 0
-426 230 0
-426 232 0
426 -230 -232 0
-427 230 0
-427 233 0
427 -230 -233 0
-428 230 0
-428 234 0
428 -230 -234 0
-429 230 0
-429 235 0
429 -230 -235 0
-430 230 0
-430 236 0
430 -230 -236 0
-431 230 0
-431 237 0
431 -230 -237 0
-432 230 0
-432 238 0
432 -230 -238 0
-433 230 0
-433 239 0
433 -230 -239 0
-434 230 0
-434 240 0
434 -230 -240 0
-435 230 0
-435 241 0
435 -230 -241 0
-436 230 0
-436 242 0
436 -230 -242 0
-437 231 0
-437 232 0
437 -231 -232 0
-438 231 0
-438 233 0
438 -231 -233 0
-439 231 0
-439 234 0
439 -231 -234 0
-440 231 0
-440 235 0
440 -231 -235 0
-441 231 0
-441 236 0
441 -231 -236 0
-442 231 0
-442 237 0
442 -231 -237 0
-443 231 0
-443 238 0
443 -231 -238 0
-444 231 0
-444 239 0
444 -231 -239 0
-445 231 0
-445 240 0
445 -231 -240 0
-446 231 0
-446 241 0
446 -231 -241 0
-447 231 0
-447 242 0
447 -231 -242 0
-448 232 0
-448 233 0
448 -232 -233 0
-449 232 0
-449 234 0
449 -232 -234 0
-450 232 0
-450 235 0
450 -232 -235 0
-451 232 0
-451 236 0
451 -232 -236 0
-452 232 0
-452 237 0
452 -232 -237 0
-453 232 0
-453 238 0
453 -232 -238 0
-454 232 0
-454 239 0
454 -232 -239 0
-455 232 0
-455 240 0
455 -232 -240 0
-456 232 0
-456 241 0
456 -232 -241 0
-457 232 0
-457 242 0
457 -232 -242 0
-458 233 0
-458 234 0
458 -233 -234 0
-459 233 0
-459 235 0
459 -233 -235 0
-460 233 0
-460 236 0
460 -233 -236 0
-461 233 0
-461 237 0
461 -233 -237 0
-462 233 0
-462 238 0
462 -233 -238 0
-463 233 0
-463 239 0
463 -233 -239 0
-464 233 0
-464 240 0
464 -233 -240 0
-465 233 0
-465 241 0
465 -233 -241 0
-466 233 0
-466 242 0
466 -233 -242 0
-467 234 0
-467 235 0
467 -234 -235 0
-468 234 0
-468 236 0
468 -234 -236 0
-469 234 0
-469 237 0
469 -234 -237 0
-470 234 0
-470 238 0
470 -234 -238 0
-471 234 0
-471 239 0
471 -234 -239 0
-472 234 0
-472 240 0
472 -234 -240 0
-473 234 0
-473 241 0
473 -234 -241 0
-474 234 0
-474 242 0
474 -234 -242 0
-475 235 0
-475 236 0
475 -235 -236 0
-476 235 0
-476 237 0
476 -235 -237 0
-477 235 0
-477 238 0
477 -235 -238 0
-478 235 0
-478 239 0
478 -235 -239 0
-479 235 0
-479 240 0
479 -235 -240 0
-480 235 0
-480 241 0
480 -235 -241 0
-481 235 0
-481 242 0
481 -235 -242 0
-482 236 0
-482 237 0
482 -236 -237 0
-483 236 0
-483 238 0
483 -236 -238 0
-484 236 0
-484 239 0
484 -236 -239 0
-485 236 0
-485 240 0
485 -236 -240 0
-486 236 0
-486 241 0
486 -236 -241 0
-487 236 0
-487 242 0
487 -236 -242 0
-488 237 0
-488 238 0
488 -237 -238 0
-489 237 0
-489 239 0
489 -237 -239 0
-490 237 0
-490 240 0
490 -237 -240 0
-491 237 0
-491 241 0
491 -237 -241 0
-492 237 0
-492 242 0
492 -237 -242 0
-493 238 0
-493 239 0
493 -238 -239 0
-494 238 0
-494 240 0
494 -238 -240 0
-495 238 0
-495 241 0
495 -238 -241 0
-496 238 0
-496 242 0
496 -238 -242 0
-497 239 0
-497 240 0
497 -239 -240 0
-498 239 0
-498 241 0
498 -239 -241 0
-499 239 0
-499 242 0
499 -239 -242 0
-500 240 0
-500 241 0
500 -240 -241 0
-501 240 0
-501 242 0
501 -240 -242 0
-502 241 0
-502 242 0
502 -241 -242 0
x 216 221 223 228 233 235 237 239 240 241 244 245 246 248 249 251 252 253 254 256 259 260 262 263 267 269 270 271 273 274 276 277 278 279 282 284 285 287 290 291 295 296 298 300 302 303 307 308 309 311 313 314 315 320 322 324 325 326 331 332 335 336 337 342 343 347 348 353 354 359 364 365 370 371 375 376 381 382 384 386 387 392 393 395 398 403 404 406 409 410 411 414 415 417 420 421 422 423 428 429 430 431 435 437 438 440 443 445 446 447 448 449 450 451 453 454 455 456 457 458 460 464 465 470 471 472 473 478 482 484 487 490 492 496 498 501 0
x 220 221 222 223 224 225 227 229 230 232 234 235 237 238 239 241 245 246 247 249 250 251 252 255 257 260 261 264 265 266 270 271 272 274 279 281 283 285 286 287 288 289 290 291 293 296 297 302 303 305 309 310 312 314 315 316 321 323 325 326 327 332 333 334 336 337 338 343 344 347 348 349 354 355 360 365 366 371 372 376 377 382 383 385 387 388 393 394 396 399 404 405 407 410 411 415 416 418 421 422 423 424 426 427 428 429 432 435 436 437 438 440 444 445 447 448 449 452 454 456 457 458 461 463 464 465 466 467 472 473 477 478 479 481 485 486 488 492 494 497 498 499 502 0
x 221 223 229 230 232 233 234 235 240 242 244 249 250 252 254 256 257 258 260 261 263 264 265 266 270 271 272 274 275 277 278 279 280 283 285 286 289 292 296 297 302 304 307 309 310 314 316 317 320 321 325 327 328 331 332 333 336 338 339 342 343 344 345 347 349 350 353 354 355 356 359 360 361 364 365 366 367 370 371 372 375 376 377 378 381 382 383 386 387 388 389 392 393 394 397 398 399 400 403 404 405 408 409 410 414 415 416 419 420 421 424 429 430 433 438 440 442 443 446 447 448 449 450 454 455 458 462 464 466 467 468 470 474 478 479 480 481 482 483 486 487 488 489 490 491 492 497 499 500 501 0
x 220 227 229 230 232 233 235 237 238 240 241 242 243 245 250 252 257 258 259 261 262 263 266 268 271 272 273 277 278 281 284 286 288 289 290 291 292 293 294 297 298 299 300 301 304 305 306 310 311 315 317 318 321 322 326 328 329 332 333 337 339 340 343 344 345 346 348 350 351 354 355 356 357 361 362 365 366 367 368 371 372 373 376 377 378 379 382 383 384 387 388 389 390 393 394 395 398 399 400 401 404 405 406 409 410 411 412 415 416 417 420 421 422 426 429 431 432 434 435 436 437 438 441 442 443 444 445 451 452 459 460 469 472 474 477 480 486 490 492 494 495 497 498 499 501 502 0
x 217 221 222 224 225 230 236 237 238 239 241 243 244 246 247 249 253 254 256 257 259 260 265 282 283 288 292 293 295 299 300 303 305 307 308 309 312 313 314 315 316 318 319 320 323 324 325 326 327 329 330 331 332 333 334 335 336 337 338 340 341 342 343 344 345 346 347 348 349 351 352 353 354 355 356 357 358 359 360 362 363 364 365 366 367 368 369 370 371 372 373 374 375 376 377 378 379 380 381 382 383 385 386 387 388 389 390 391 392 393 394 396 398 399 400 401 402 403 404 405 407 409 412 413 414 415 416 418 420 431 433 435 436 439 441 442 443 444 446 450 451 454 456 459 468 472 473 475 478 479 482 483 484 485 487 488 489 490 493 497 498 499 0
x 220 221 225 227 229 230 231 234 235 237 238 239 241 242 244 246 247 249 250 253 255 257 258 259 261 262 264 266 267 269 270 271 273 274 275 277 278 279 282 283 285 288 289 290 291 293 294 295 298 299 300 301 302 303 304 306 310 311 316 317 319 321 322 327 328 330 333 338 339 341 344 345 346 349 350 352 355 356 357 358 360 361 363 366 367 368 369 372 374 377 378 379 380 383 388 389 390 391 394 397 398 399 400 401 402 405 408 409 411 412 413 416 419 420 422 423 425 426 429 430 431 432 433 434 441 442 443 444 445 446 449 450 452 454 455 457 458 459 461 463 464 465 466 470 473 475 476 477 478 479 481 482 484 489 490 492 493 495 497 499 500 501 0
x -220 224 226 227 228 230 232 234 236 237 238 240 241 243 245 246 247 249 250 252 254 256 259 261 262 264 265 267 269 271 273 274 278 279 281 283 285 286 287 288 289 290 291 293 295 297 301 302 303 306 311 312 317 318 320 322 323 328 329 331 334 339 340 342 345 346 350 351 353 356 357 358 359 361 362 364 367 368 369 370 373 375 378 379 380 381 384 386 389 390 391 392 395 398 400 401 402 403 406 409 410 412 413 414 417 420 421 423 424 425 427 431 432 434 435 440 441 442 443 446 451 455 456 458 460 463 464 469 471 474 478 483 485 487 489 491 494 495 496 498 499 501 502 0
x -226 227 229 230 232 233 234 238 241 243 244 246 248 250 251 255 257 259 260 262 263 266 268 270 271 272 274 275 277 279 280 282 283 284 286 287 288 290 291 292 295 296 298 301 302 303 304 306 307 312 313 318 319 323 324 329 330 332 334 335 340 341 343 346 351 352 354 357 358 359 362 363 365 368 369 370 371 373 374 376 379 380 381 382 385 387 390 391 392 393 396 401 402 403 404 407 410 411 412 413 414 415 418 421 422 424 425 428 430 431 432 433 434 436 437 442 443 447 450 451 452 454 455 456 461 462 464 465 467 471 472 473 474 476 479 482 483 484 485 490 493 494 495 496 498 499 501 0
x -218 223 227 230 233 234 235 236 237 239 244 245 250 251 253 256 258 259 260 262 263 265 267 269 272 274 275 277 278 280 282 284 286 287 291 292 294 296 298 299 300 301 302 303 304 306 308 313 314 319 320 324 325 330 331 333 335 336 341 342 344 347 352 353 355 358 359 363 364 366 369 370 371 372 374 375 377 380 381 382 383 386 388 391 392 393 394 397 399 402 403 404 405 408 411 413 414 415 416 419 422 423 427 429 432 433 435 437 438 441 442 443 444 445 446 452 453 454 455 456 457 459 460 462 464 465 467 468 470 472 473 474 478 481 482 483 484 485 486 488 490 494 495 497 499 500 502 0
x 221 222 226 227 230 232 233 234 238 239 242 243 245 246 248 251 252 256 257 259 261 263 264 268 270 272 273 275 276 279 281 283 284 285 287 288 290 292 293 295 296 297 299 300 301 303 304 305 308 309 314 315 320 325 326 331 332 336 337 342 343 345 347 348 353 354 356 359 364 365 367 370 371 372 375 376 378 381 382 383 384 386 387 389 392 393 394 395 398 400 403 404 405 406 409 414 415 416 417 420 423 424 425 426 427 428 430 431 432 433 434 435 437 439 443 444 446 447 451 452 453 454 457 461 465 466 467 469 472 473 477 479 485 489 491 494 496 498 499 501 0
x 226 229 230 233 234 235 237 239 240 241 244 246 247 248 249 250 251 252 254 257 258 263 264 266 269 271 272 273 275 276 278 280 282 285 287 288 290 291 293 295 297 299 300 304 305 307 308 309 310 315 316 321 326 327 332 333 337 338 343 344 346 348 349 354 355 357 360 365 366 368 371 372 376 377 379 382 383 384 385 387 388 390 393 394 395 396 399 401 404 405 406 407 410 412 415 416 417 418 421 424 425 426 429 431 433 434 436 437 440 442 443 444 445 446 448 453 454 460 461 462 464 465 466 470 471 473 474 475 479 480 481 483 486 488 489 490 491 495 497 498 499 501 0
x 227 229 230 232 233 234 235 236 238 241 243 244 245 247 248 250 251 252 253 256 258 259 261 264 265 269 270 272 274 276 277 281 283 285 286 288 289 292 294 296 297 298 300 301 303 305 306 309 310 311 316 317 321 322 327 328 333 338 339 344 345 349 350 355 356 358 360 361 366 367 369 372 377 378 380 383 384 385 388 389 391 394 395 396 397 399 400 402 405 406 407 408 411 413 416 417 418 419 422 428 430 433 434 435 436 439 441 444 445 447 448 449 452 453 454 455 456 457 462 463 464 465 466 468 469 471 473 474 475 476 478 480 481 485 488 489 490 491 492 493 495 498 499 500 502 0
x 219 222 224 226 227 229 230 235 236 240 241 242 244 245 246 248 253 255 257 259 260 261 262 263 264 265 267 270 271 276 277 279 282 284 285 286 288 289 291 293 295 298 300 301 303 304 306 308 310 311 312 317 318 321 322 323 328 329 334 339 340 345 346 350 351 356 357 359 361 362 367 368 370 373 378 379 381 384 385 389 390 392 395 396 397 398 400 401 403 406 407 408 409 412 414 417 418 419 420 423 425 426 428 431 433 434 435 437 438 439 440 442 443 444 445 446 447 448 450 454 455 457 461 462 463 464 470 474 475 477 480 481 484 486 491 494 496 498 501 0
x -221 223 227 228 229 231 234 236 237 242 243 246 247 249 250 254 256 257 258 260 261 263 264 265 266 269 271 272 274 277 278 282 283 285 287 289 290 294 296 298 299 301 302 305 307 309 311 312 313 318 319 322 323 324 329 330 334 335 340 341 346 351 352 357 358 362 363 368 369 371 373 374 379 380 382 385 390 391 393 396 397 398 401 402 404 407 408 409 410 412 413 415 418 419 420 421 424 425 426 428 432 433 435 436 437 438 441 443 445 446 448 451 453 454 455 456 457 458 463 464 469 470 471 473 474 478 479 481 482 486 487 489 492 493 494 495 496 499 500 501 0
x 221 223 228 229 231 236 239 242 244 247 248 251 252 253 257 258 259 261 266 268 270 272 273 274 275 276 277 278 280 283 284 289 290 292 295 297 298 299 301 302 304 306 308 310 312 313 314 319 320 321 323 324 325 330 331 334 335 336 341 342 347 352 353 358 359 363 364 369 370 372 374 375 380 381 383 386 391 392 394 397 398 402 403 405 408 409 410 411 413 414 416 419 420 421 422 425 430 433 436 440 442 445 446 447 450 452 455 456 458 459 462 463 464 465 466 471 472 473 474 476 477 479 481 482 483 485 487 491 493 494 495 496 497 499 501 502 0